rectOffsets = 
    [|0,0,7,12|0,0,12,7|0,0,7,7|0,0,7,7|0,0,1,7|0,0,7,1|0,0,1,5|0,0,5,1|0,0,2,3|0,0,3,2|0,0,2,6|0,0,6,2|0,0,2,7|0,0,7,2|0,0,2,5|0,0,5,2|0,0,1,3|0,0,3,1|0,0,1,6|0,0,6,1|0,0,6,12|0,0,12,6|0,0,6,9|0,0,9,6|0,0,2,12|0,0,12,2|0,0,2,7|0,0,7,2|0,0,3,10|0,0,10,3|0,0,1,4|0,0,4,1|0,0,1,5|0,0,5,1|0,0,3,16|0,0,16,3|0,0,3,5|0,0,5,3|0,0,2,4|0,0,4,2|0,0,2,5|0,0,5,2|0,0,3,10|0,0,10,3|0,0,3,9|0,0,9,3|0,0,3,16|0,0,16,3|0,0,3,5|0,0,5,3|];

shape = array1d(1..50, [{1}, {2}, {3}, {4}, {5}, {6}, {7}, {8}, {9}, {10},
    {11}, {12}, {13}, {14}, {15}, {16}, {17}, {18}, {19}, {20}, {21},
    {22}, {23}, {24}, {25}, {26}, {27}, {28}, {29}, {30}, {31}, {32},
    {33}, {34}, {35}, {36}, {37}, {38}, {39}, {40}, {41}, {42}, {43},
    {44}, {45}, {46}, {47}, {48}, {49}, {50}]);

validshapes = array1d(1..25, [{1,2}, {3,4}, {5,6}, {7,8}, {9,10}, {11,12}, {13,14},
    {15,16}, {17,18}, {19,20}, {21,22}, {23,24}, {25,26}, {27,28},
    {29,30}, {31,32}, {33,34}, {35,36}, {37,38}, {39,40}, {41,42},
    {43,44}, {45,46}, {47,48}, {49,50}]);

dx = array1d(1..25, [7, 7, 1, 1, 2, 2, 2, 2, 1, 1, 6, 6, 2, 2, 3, 1, 1, 3,
    3, 2, 2, 3, 3, 3, 3]);

dy = array1d(1..25, [12, 7, 7, 5, 3, 6, 7, 5, 3, 6, 12, 9, 12, 7, 10, 4, 5,
    16, 5, 4, 5, 10, 9, 16, 5]);

w = 15;

n = 25;

o = 50;

